
******************************************************************************
This program contains Ipopt, a library for large-scale nonlinear optimization.
 Ipopt is released as open source code under the Eclipse Public License (EPL).
         For more information visit http://projects.coin-or.org/Ipopt

This version of Ipopt was compiled from source code available at
    https://github.com/IDAES/Ipopt as part of the Institute for the Design of
    Advanced Energy Systems Process Systems Engineering Framework (IDAES PSE
    Framework) Copyright (c) 2018-2019. See https://github.com/IDAES/idaes-pse.

This version of Ipopt was compiled using HSL, a collection of Fortran codes
    for large-scale scientific computation.  All technical papers, sales and
    publicity material resulting from use of the HSL codes within IPOPT must
    contain the following acknowledgement:
        HSL, a collection of Fortran codes for large-scale scientific
        computation. See http://www.hsl.rl.ac.uk.
******************************************************************************

This is Ipopt version 3.13.2, running with linear solver ma27.

Number of nonzeros in equality constraint Jacobian...:     1126
Number of nonzeros in inequality constraint Jacobian.:        0
Number of nonzeros in Lagrangian Hessian.............:     1431

Total number of variables............................:      432
                     variables with only lower bounds:      108
                variables with lower and upper bounds:      270
                     variables with only upper bounds:        0
Total number of equality constraints.................:      428
Total number of inequality constraints...............:        0
        inequality constraints with only lower bounds:        0
   inequality constraints with lower and upper bounds:        0
        inequality constraints with only upper bounds:        0

iter    objective    inf_pr   inf_du lg(mu)  ||d||  lg(rg) alpha_du alpha_pr  ls
   0  0.0000000e+00 7.18e-01 3.15e-14  -1.0 0.00e+00    -  0.00e+00 0.00e+00   0
   1  3.2019679e-03 5.40e-01 5.92e+01  -1.0 2.13e+04    -  5.47e-01 2.47e-01h  3
   2  5.1005592e-02 6.66e-02 8.77e+01  -1.0 1.62e+04    -  8.78e-01 9.90e-01H  1
   3  5.3021034e-02 5.45e-04 1.80e+01  -1.0 7.40e+03    -  9.76e-01 9.90e-01h  1
   4  5.4367595e-02 2.52e-05 3.76e+02  -1.0 1.91e+03    -  9.87e-01 9.90e-01h  1
   5  1.0220337e-01 1.22e-05 1.43e+05  -1.0 1.41e+04    -  9.79e-01 9.90e-01H  1
   6  1.2848728e-01 2.59e-06 1.70e+05  -1.0 3.96e+03    -  9.90e-01 9.90e-01H  1
   7  8.5923339e-02 2.05e-06 6.88e+07  -1.7 5.34e+03    -  9.93e-01 9.90e-01H  1
   8  6.1382081e-02 2.91e-06 2.66e+10  -1.7 5.67e+03    -  1.00e+00 9.90e-01H  1
In iteration 8, 27 Slacks too small, adjusting variable bounds
   9  6.0913600e-02 9.87e-08 2.66e+12  -1.7 1.59e+02    -  1.00e+00 9.90e-01h  1
iter    objective    inf_pr   inf_du lg(mu)  ||d||  lg(rg) alpha_du alpha_pr  ls
  10  6.0908114e-02 1.64e-11 2.00e-07  -1.7 1.83e+00    -  1.00e+00 1.00e+00h  1
  11  4.8629983e-02 1.33e-07 1.08e+11  -9.0 5.14e+03    -  9.60e-01 1.00e+00F  1
  12  4.7554193e-02 2.88e-09 1.63e+09  -9.0 2.27e+03    -  9.85e-01 1.00e+00F  1
  13  4.7553437e-02 2.13e-08 1.18e-07  -9.0 6.19e+01    -  1.00e+00 1.00e+00h  1
  14  4.7553437e-02 2.68e-13 1.46e-11  -9.0 6.52e-02    -  1.00e+00 1.00e+00h  1

Number of Iterations....: 14

                                   (scaled)                 (unscaled)
Objective...............:   4.7553437377116752e-02    4.7553437377116752e-02
Dual infeasibility......:   1.4551915228366852e-11    1.4551915228366852e-11
Constraint violation....:   2.6761926008589398e-13    2.6761926008589398e-13
Complementarity.........:   9.0912551912149887e-10    9.0912551912149887e-10
Overall NLP error.......:   1.7872525867240083e-11    9.0912551912149887e-10


Number of objective function evaluations             = 30
Number of objective gradient evaluations             = 15
Number of equality constraint evaluations            = 30
Number of inequality constraint evaluations          = 0
Number of equality constraint Jacobian evaluations   = 15
Number of inequality constraint Jacobian evaluations = 0
Number of Lagrangian Hessian evaluations             = 14
Total CPU secs in IPOPT (w/o function evaluations)   =      0.045
Total CPU secs in NLP function evaluations           =      0.430

EXIT: Optimal Solution Found.
